experiments/lot-sizing/detailed-output/inst-2-601225362.param
language Essence 1.3

letting change_cost be
        [[0, 0, 0, 0, 0, 0, 0, 0, 0, 0, 0, 0, 0, 0, 0; int(0..14)],
         [0, 0, 54, 170, 154, 24, 41, 10, 90, 108, 84, 160, 60, 74, 92; int(0..14)],
         [0, 168, 0, 148, 150, 166, 179, 104, 149, 92, 130, 154, 168, 135, 109; int(0..14)],
         [0, 162, 32, 0, 117, 103, 145, 36, 85, 61, 124, 171, 74, 142, 34; int(0..14)],
         [0, 199, 142, 128, 0, 199, 157, 87, 162, 160, 169, 62, 114, 156, 82; int(0..14)],
         [0, 61, 38, 162, 153, 0, 51, 28, 80, 129, 102, 139, 61, 128, 68; int(0..14)],
         [0, 44, 55, 129, 198, 50, 0, 17, 60, 141, 103, 150, 30, 91, 77; int(0..14)],
         [0, 148, 76, 192, 191, 161, 187, 0, 149, 141, 155, 172, 148, 184, 95; int(0..14)],
         [0, 177, 113, 85, 199, 124, 158, 86, 0, 133, 114, 117, 117, 176, 113; int(0..14)],
         [0, 111, 22, 109, 112, 86, 91, 60, 70, 0, 108, 125, 88, 89, 84; int(0..14)],
         [0, 156, 34, 115, 156, 101, 136, 83, 126, 112, 0, 119, 154, 112, 70; int(0..14)],
         [0, 165, 165, 193, 104, 166, 197, 132, 116, 168, 177, 0, 155, 112, 177; int(0..14)],
         [0, 128, 134, 149, 176, 110, 116, 69, 104, 125, 144, 138, 0, 194, 75; int(0..14)],
         [0, 129, 110, 112, 183, 138, 124, 128, 100, 114, 148, 188, 60, 0, 95; int(0..14)],
         [0, 172, 105, 133, 179, 193, 198, 57, 145, 191, 97, 147, 164, 158, 0; int(0..14)];
             int(0..14)]
$ Visualisation for change_cost
$   0   0   0   0   0   0   0   0   0   0   0   0   0   0   0
$   0   0  54 170 154  24  41  10  90 108  84 160  60  74  92
$   0 168   0 148 150 166 179 104 149  92 130 154 168 135 109
$   0 162  32   0 117 103 145  36  85  61 124 171  74 142  34
$   0 199 142 128   0 199 157  87 162 160 169  62 114 156  82
$   0  61  38 162 153   0  51  28  80 129 102 139  61 128  68
$   0  44  55 129 198  50   0  17  60 141 103 150  30  91  77
$   0 148  76 192 191 161 187   0 149 141 155 172 148 184  95
$   0 177 113  85 199 124 158  86   0 133 114 117 117 176 113
$   0 111  22 109 112  86  91  60  70   0 108 125  88  89  84
$   0 156  34 115 156 101 136  83 126 112   0 119 154 112  70
$   0 165 165 193 104 166 197 132 116 168 177   0 155 112 177
$   0 128 134 149 176 110 116  69 104 125 144 138   0 194  75
$   0 129 110 112 183 138 124 128 100 114 148 188  60   0  95
$   0 172 105 133 179 193 198  57 145 191  97 147 164 158   0

letting due_period be [2, 3, 3, 3, 2, 2, 1, 1, 1, 2, 1, 2, 2, 1; int(1..14)]
letting inventory_cost be 5
letting item_type be [0, 1, 1, 2, 3, 4, 5, 6, 7, 8, 9, 10, 11, 12, 13; int(0..14)]
letting nb_item_types be 13
letting nb_of_orders be [2, 1, 1, 1, 1, 1, 1, 1, 1, 1, 1, 1, 1; int(1..13)]
letting nb_orders be 14
letting nb_periods be 3
